JulietBench/Juliet_Based_Patch_Bench/linux/CWE-189-Numeric-Errors/CVE_2009_4307_503358ae01b70ce6909d19dd01287093f6b6271c/Resultext4_fill_flex_info_Snippet_patch1NEQ.smt2
; benchmark generated from python API
(set-info :status unknown)
(declare-fun R () (_ BitVec 32))
(declare-fun rdi () (_ BitVec 64))
(assert
 (let (($x71 (= (_ bv1 32) R)))
 (let ((?x63 ((_ extract 4 0) rdi)))
 (let ((?x92 (concat (_ bv0 59) ?x63)))
 (let ((?x93 (bvshl (_ bv1 64) ?x92)))
 (let ((?x76 ((_ extract 31 0) ?x93)))
 (let (($x122 (bvsge (_ bv1 32) ?x76)))
 (let (($x130 (and $x122 $x71)))
 (let (($x58 (= R ?x76)))
 (let (($x105 (bvslt (_ bv1 32) ?x76)))
 (let (($x241 (and $x105 $x58)))
 (let (($x224 (or $x241 $x130)))
 (let (($x222 (not $x224)))
 (let ((?x6 ((_ extract 31 0) rdi)))
 (let (($x10 (= (_ bv0 32) ?x6)))
 (let (($x293 (and $x10 $x71)))
 (let (($x36 (and (distinct (_ bv0 32) ?x6) true)))
 (let (($x72 (and $x36 $x58)))
 (let (($x259 (or $x72 $x293)))
 (let (($x90 (not $x259)))
 (let (($x110 (and $x90 $x222)))
 (let (($x231 (and $x259 $x224)))
 (let (($x73 (or $x231 $x110)))
 (not $x73))))))))))))))))))))))))
(check-sat)
